 $CONTRL SCFTYP=RHF RUNTYP=FCIDUMP CCTYP=CCSD MAXIT=30 $END
 $BASIS GBASIS=N311 NGAUSS=6 NDFUNC=1 $END
 $CCINP NCORE=0 $END
 $TRANS CUTTRF=1.0d-12   $END
 $SCF DIRSCF=.TRUE. CONV=1.0d-14 $END
 $DATA
Title
C1
O     8.0    -1.09735     0.03059     0.00000
H     1.0    -1.09735     1.13059     0.00000
H     1.0    -1.09735    -0.33608     1.03709
O     8.0     0.54435     3.41543     0.26396
H     1.0     0.69786     4.22643     0.23540
H     1.0     0.47955     3.09125     1.31311
 $END
